32	0

0	3	2	3	4
9	2	7	8
4	1	6
1	1	5
2	1	6
4	2	7	8
8	3	9	10	15
4	4	9	10	11	15
4	3	12	14	16
3	4	12	13	14	16
7	4	12	13	14	16
9	3	17	19	20
4	4	17	18	19	20
2	4	17	18	19	20
7	4	17	18	19	20
3	4	17	18	19	20
5	2	22	24
8	3	22	23	24
8	1	25
1	2	21	23
4	2	22	24
7	2	26	27
10	2	26	27
3	1	25
4	2	26	27
4	2	28	29
8	2	28	29
9	2	30	31
9	2	30	31
10	1	32
5	1	32
0	0
